data/mip_solutions/furman_sahinidis/transshipment/7sp4_cplex.sol
Elapsed time: 0.0240378379822
Nodes explored: 0
Upper bound: 8.0
Lower bound: 8.0
y[0,0]=1
y[1,0]=1
y[2,0]=1
y[3,0]=1
y[4,1]=1
y[5,0]=1
y[5,1]=1
y[6,0]=1
q[0,0,1]=158.222346
q[0,0,3]=918.823997
q[0,0,4]=131.885971
q[0,0,5]=164.187775
q[0,0,6]=934.840882
q[1,0,3]=451.345734
q[2,0,3]=145.077514
q[2,0,6]=415.45
q[3,0,4]=281.372294
q[3,0,5]=1213.29845
q[4,1,6]=1055.079113
q[5,0,6]=1432.253608
q[5,0,7]=275.52204
q[5,1,6]=856.681679
q[6,0,0]=730.088775
q[6,0,1]=1012.647144
q[6,0,2]=688.75551
r[0,2]=215.44534
r[0,3]=435.252654
r[0,6]=275.41894
r[1,3]=161.195734
r[2,5]=39.567458
r[2,6]=171.455028
r[3,5]=246.17159
r[4,6]=351.6909275
r[5,7]=275.52204
r[6,1]=1701.402654
r[6,2]=688.75551
