data/mip_solutions/furman_sahinidis/transshipment/7sp4_cplex.log

Log started (V12.6.3.0) Tue Jun  6 16:47:34 2017

New value for default parallel thread count: 1

Problem '/tmp/tmpNPwW4u.pyomo.lp' read.
Read time = 0.00 sec. (0.01 ticks)

Problem name         : /tmp/tmpNPwW4u.pyomo.lp
Objective sense      : Minimize
Variables            :     191  [Nneg: 176,  Binary: 14,  General Integer: 1]
Objective nonzeros   :       1
Linear constraints   :      90  [Less: 14,  Equal: 76]
  Nonzeros           :     490
  RHS nonzeros       :      28

Variables            : Min LB: 0.000000         Max UB: 1.000000       
Objective nonzeros   : Min   : 1.000000         Max   : 1.000000       
Linear constraints   :
  Nonzeros           : Min   : 1.000000         Max   : 2564.457       
  RHS nonzeros       : Min   : 1.000000         Max   : 2782.544       
Tried aggregator 2 times.
MIP Presolve eliminated 38 rows and 116 columns.
MIP Presolve added 1 rows and 1 columns.
MIP Presolve modified 9 coefficients.
Aggregator did 25 substitutions.
Reduced MIP has 28 rows, 51 columns, and 123 nonzeros.
Reduced MIP has 8 binaries, 1 generals, 0 SOSs, and 0 indicators.
Presolve time = 0.00 sec. (0.25 ticks)
Found incumbent of value 12.000000 after 0.00 sec. (0.38 ticks)
Probing fixed 1 vars, tightened 1 bounds.
Probing time = 0.00 sec. (0.01 ticks)
Cover probing fixed 0 vars, tightened 1 bounds.
Tried aggregator 1 time.
MIP Presolve eliminated 1 rows and 2 columns.
Reduced MIP has 27 rows, 49 columns, and 115 nonzeros.
Reduced MIP has 6 binaries, 1 generals, 0 SOSs, and 0 indicators.
Presolve time = 0.00 sec. (0.06 ticks)
Probing time = 0.00 sec. (0.01 ticks)
Clique table members: 1.
MIP emphasis: balance optimality and feasibility.
MIP search method: dynamic search.
Parallel mode: none, using 1 thread.
Root relaxation solution time = 0.00 sec. (0.06 ticks)

        Nodes                                         Cuts/
   Node  Left     Objective  IInf  Best Integer    Best Bound    ItCnt     Gap

*     0+    0                           12.0000        7.0000            41.67%
      0     0        7.4481     2       12.0000        7.4481       12   37.93%
*     0+    0                            8.0000        7.4481             6.90%
      0     0        cutoff              8.0000        7.4481       12    6.90%
Elapsed time = 0.00 sec. (0.58 ticks, tree = 0.01 MB, solutions = 2)

Root node processing (before b&c):
  Real time             =    0.00 sec. (0.59 ticks)
Sequential b&c:
  Real time             =    0.00 sec. (0.00 ticks)
                          ------------
Total (root+branch&cut) =    0.00 sec. (0.59 ticks)

Solution pool: 2 solutions saved.

MIP - Integer optimal solution:  Objective =  8.0000000000e+00
Solution time =    0.00 sec.  Iterations = 12  Nodes = 0
Deterministic time = 0.59 ticks  (266.37 ticks/sec)


Incumbent solution written to file '/tmp/tmpkHKlgX.cplex.sol'.

Log started (V12.6.3.0) Mon Jul 24 16:46:04 2017

New value for default parallel thread count: 1

Problem '/tmp/tmpe_eQR2.pyomo.lp' read.
Read time = 0.00 sec. (0.01 ticks)

Problem name         : /tmp/tmpe_eQR2.pyomo.lp
Objective sense      : Minimize
Variables            :     191  [Nneg: 176,  Binary: 14,  General Integer: 1]
Objective nonzeros   :       1
Linear constraints   :      90  [Less: 14,  Equal: 76]
  Nonzeros           :     490
  RHS nonzeros       :      28

Variables            : Min LB: 0.000000         Max UB: 1.000000       
Objective nonzeros   : Min   : 1.000000         Max   : 1.000000       
Linear constraints   :
  Nonzeros           : Min   : 1.000000         Max   : 2564.457       
  RHS nonzeros       : Min   : 1.000000         Max   : 2782.544       
Tried aggregator 2 times.
MIP Presolve eliminated 38 rows and 116 columns.
MIP Presolve added 1 rows and 1 columns.
MIP Presolve modified 9 coefficients.
Aggregator did 25 substitutions.
Reduced MIP has 28 rows, 51 columns, and 123 nonzeros.
Reduced MIP has 8 binaries, 1 generals, 0 SOSs, and 0 indicators.
Presolve time = 0.00 sec. (0.25 ticks)
Found incumbent of value 12.000000 after 0.00 sec. (0.38 ticks)
Probing fixed 1 vars, tightened 1 bounds.
Probing time = 0.00 sec. (0.01 ticks)
Cover probing fixed 0 vars, tightened 1 bounds.
Tried aggregator 1 time.
MIP Presolve eliminated 1 rows and 2 columns.
Reduced MIP has 27 rows, 49 columns, and 115 nonzeros.
Reduced MIP has 6 binaries, 1 generals, 0 SOSs, and 0 indicators.
Presolve time = 0.00 sec. (0.06 ticks)
Probing time = 0.00 sec. (0.01 ticks)
Clique table members: 1.
MIP emphasis: balance optimality and feasibility.
MIP search method: dynamic search.
Parallel mode: none, using 1 thread.
Root relaxation solution time = 0.00 sec. (0.06 ticks)

        Nodes                                         Cuts/
   Node  Left     Objective  IInf  Best Integer    Best Bound    ItCnt     Gap

*     0+    0                           12.0000        7.0000            41.67%
      0     0        7.4481     2       12.0000        7.4481       12   37.93%
*     0+    0                            8.0000        7.4481             6.90%
      0     0        cutoff              8.0000        7.4481       12    6.90%
Elapsed time = 0.00 sec. (0.58 ticks, tree = 0.01 MB, solutions = 2)

Root node processing (before b&c):
  Real time             =    0.00 sec. (0.59 ticks)
Sequential b&c:
  Real time             =    0.00 sec. (0.00 ticks)
                          ------------
Total (root+branch&cut) =    0.00 sec. (0.59 ticks)

Solution pool: 2 solutions saved.

MIP - Integer optimal solution:  Objective =  8.0000000000e+00
Solution time =    0.00 sec.  Iterations = 12  Nodes = 0
Deterministic time = 0.59 ticks  (246.22 ticks/sec)


Incumbent solution written to file '/tmp/tmpOQa8fe.cplex.sol'.

Log started (V12.6.3.0) Mon Jul 24 16:58:58 2017

New value for default parallel thread count: 1

Problem '/tmp/tmpfIp1Xn.pyomo.lp' read.
Read time = 0.00 sec. (0.01 ticks)

Problem name         : /tmp/tmpfIp1Xn.pyomo.lp
Objective sense      : Minimize
Variables            :     191  [Nneg: 176,  Binary: 14,  General Integer: 1]
Objective nonzeros   :       1
Linear constraints   :      90  [Less: 14,  Equal: 76]
  Nonzeros           :     490
  RHS nonzeros       :      28

Variables            : Min LB: 0.000000         Max UB: 1.000000       
Objective nonzeros   : Min   : 1.000000         Max   : 1.000000       
Linear constraints   :
  Nonzeros           : Min   : 1.000000         Max   : 2564.457       
  RHS nonzeros       : Min   : 1.000000         Max   : 2782.544       
Tried aggregator 2 times.
MIP Presolve eliminated 38 rows and 116 columns.
MIP Presolve added 1 rows and 1 columns.
MIP Presolve modified 9 coefficients.
Aggregator did 25 substitutions.
Reduced MIP has 28 rows, 51 columns, and 123 nonzeros.
Reduced MIP has 8 binaries, 1 generals, 0 SOSs, and 0 indicators.
Presolve time = 0.00 sec. (0.25 ticks)
Found incumbent of value 12.000000 after 0.00 sec. (0.38 ticks)
Probing fixed 1 vars, tightened 1 bounds.
Probing time = 0.00 sec. (0.01 ticks)
Cover probing fixed 0 vars, tightened 1 bounds.
Tried aggregator 1 time.
MIP Presolve eliminated 1 rows and 2 columns.
Reduced MIP has 27 rows, 49 columns, and 115 nonzeros.
Reduced MIP has 6 binaries, 1 generals, 0 SOSs, and 0 indicators.
Presolve time = 0.00 sec. (0.06 ticks)
Probing time = 0.00 sec. (0.01 ticks)
Clique table members: 1.
MIP emphasis: balance optimality and feasibility.
MIP search method: dynamic search.
Parallel mode: none, using 1 thread.
Root relaxation solution time = 0.00 sec. (0.06 ticks)

        Nodes                                         Cuts/
   Node  Left     Objective  IInf  Best Integer    Best Bound    ItCnt     Gap

*     0+    0                           12.0000        7.0000            41.67%
      0     0        7.4481     2       12.0000        7.4481       12   37.93%
*     0+    0                            8.0000        7.4481             6.90%
      0     0        cutoff              8.0000        7.4481       12    6.90%
Elapsed time = 0.00 sec. (0.58 ticks, tree = 0.01 MB, solutions = 2)

Root node processing (before b&c):
  Real time             =    0.00 sec. (0.59 ticks)
Sequential b&c:
  Real time             =    0.00 sec. (0.00 ticks)
                          ------------
Total (root+branch&cut) =    0.00 sec. (0.59 ticks)

Solution pool: 2 solutions saved.

MIP - Integer optimal solution:  Objective =  8.0000000000e+00
Solution time =    0.00 sec.  Iterations = 12  Nodes = 0
Deterministic time = 0.59 ticks  (282.34 ticks/sec)


Incumbent solution written to file '/tmp/tmptmTNqL.cplex.sol'.

Log started (V12.6.3.0) Wed Jul 26 16:03:16 2017

New value for default parallel thread count: 1

Problem '/tmp/tmp8FmyNE.pyomo.lp' read.
Read time = 0.00 sec. (0.01 ticks)

Problem name         : /tmp/tmp8FmyNE.pyomo.lp
Objective sense      : Minimize
Variables            :     191  [Nneg: 176,  Binary: 14,  General Integer: 1]
Objective nonzeros   :       1
Linear constraints   :      90  [Less: 14,  Equal: 76]
  Nonzeros           :     490
  RHS nonzeros       :      28

Variables            : Min LB: 0.000000         Max UB: 1.000000       
Objective nonzeros   : Min   : 1.000000         Max   : 1.000000       
Linear constraints   :
  Nonzeros           : Min   : 1.000000         Max   : 2564.457       
  RHS nonzeros       : Min   : 1.000000         Max   : 2782.544       
Tried aggregator 2 times.
MIP Presolve eliminated 38 rows and 116 columns.
MIP Presolve added 1 rows and 1 columns.
MIP Presolve modified 9 coefficients.
Aggregator did 25 substitutions.
Reduced MIP has 28 rows, 51 columns, and 123 nonzeros.
Reduced MIP has 8 binaries, 1 generals, 0 SOSs, and 0 indicators.
Presolve time = 0.00 sec. (0.25 ticks)
Found incumbent of value 12.000000 after 0.00 sec. (0.38 ticks)
Probing fixed 1 vars, tightened 1 bounds.
Probing time = 0.00 sec. (0.01 ticks)
Cover probing fixed 0 vars, tightened 1 bounds.
Tried aggregator 1 time.
MIP Presolve eliminated 1 rows and 2 columns.
Reduced MIP has 27 rows, 49 columns, and 115 nonzeros.
Reduced MIP has 6 binaries, 1 generals, 0 SOSs, and 0 indicators.
Presolve time = 0.00 sec. (0.06 ticks)
Probing time = 0.00 sec. (0.01 ticks)
Clique table members: 1.
MIP emphasis: balance optimality and feasibility.
MIP search method: dynamic search.
Parallel mode: none, using 1 thread.
Root relaxation solution time = 0.00 sec. (0.06 ticks)

        Nodes                                         Cuts/
   Node  Left     Objective  IInf  Best Integer    Best Bound    ItCnt     Gap

*     0+    0                           12.0000        7.0000            41.67%
      0     0        7.4481     2       12.0000        7.4481       12   37.93%
*     0+    0                            8.0000        7.4481             6.90%
      0     0        cutoff              8.0000        7.4481       12    6.90%
Elapsed time = 0.00 sec. (0.58 ticks, tree = 0.01 MB, solutions = 2)

Root node processing (before b&c):
  Real time             =    0.00 sec. (0.59 ticks)
Sequential b&c:
  Real time             =    0.00 sec. (0.00 ticks)
                          ------------
Total (root+branch&cut) =    0.00 sec. (0.59 ticks)

Solution pool: 2 solutions saved.

MIP - Integer optimal solution:  Objective =  8.0000000000e+00
Solution time =    0.00 sec.  Iterations = 12  Nodes = 0
Deterministic time = 0.59 ticks  (173.76 ticks/sec)


Incumbent solution written to file '/tmp/tmpG93v5u.cplex.sol'.
